MaxSMT/clique_openwbo/1.wcnf
p wcnf 52 1502 10000

...

c soft clauses: vertices:
1 3 0
1 4 0
1 5 0
1 6 0
...
1 49 0
1 50 0
1 51 0
1 52 0

c hard clauses: list of all non-existent pairs:
10000 -3 -5 0
10000 -3 -6 0
10000 -3 -11 0
10000 -3 -13 0
10000 -3 -14 0
10000 -3 -15 0
10000 -3 -17 0
10000 -3 -19 0
...
10000 -52 -31 0
10000 -52 -34 0
10000 -52 -36 0
10000 -52 -39 0
10000 -52 -40 0
10000 -52 -45 0
10000 -52 -46 0
10000 -52 -47 0
10000 -52 -48 0

